c --- [ banner ] -------------------------------------------------------------
c 
c CaDiCaL Radically Simplified CDCL SAT Solver
c Copyright (c) 2016-2021 A. Biere, M. Fleury, N. Froleyks
c 
c Version 1.5.2 a5f15211db36c3956764e18194dd5bd63bf3b5e6
c g++ (GCC) 9.3.0 -Wall -Wextra -O3 -DNDEBUG
c Fri Oct 21 01:27:37 EDT 2022 Linux gra-login3 3.10.0-1160.66.1.el7.x86_64 x86_64
c 
c --- [ limit ] --------------------------------------------------------------
c 
c setting conflict limit to 200000 conflicts (due to '200000')
c 
c --- [ parsing input ] ------------------------------------------------------
c 
c reading DIMACS file from '33.cubes2096.adj'
c opening file to read '33.cubes2096.adj'
c found 'p cnf 6160 1595471' header
c parsed 1595471 clauses in 19.16 seconds process time
c closing file '33.cubes2096.adj'
c after reading 1457566747 bytes 1390.0 MB
c 
c --- [ options ] ------------------------------------------------------------
c 
c all options are set to their default value
c 
c --- [ solving ] ------------------------------------------------------------
c 
c time measured in process time since initialization
c 
c  seconds    reductions  redundant   irredundant
c          MB     restarts       trail       variables
c            level   conflicts       glue         remaining
c 
c * 19.16 1376  0 0   0    0    0  0% 0 1595422 2554 41%
c { 19.93 1418  0 0   0    0    0  0% 0 1595422 2554 41%
c i 24.76 1512 277 0  28  138  118 30% 33 1595422 2553 41%
c i 24.89 1512 266 0  29  151  129 30% 40 1595422 2538 41%
c i 25.58 1516 236 0  39  185  160 29% 41 1595422 2523 41%
c i 25.82 1516 219 0  44  204  175 29% 41 1595422 2522 41%
c i 25.88 1516 206 0  45  221  186 29% 40 1595422 2514 41%
c i 26.23 1516 163 0  45  298  255 29% 36 1595422 2513 41%
c - 29.58 1388 162 1  45  300  256 29% 36 289352 2506 41%
c i 29.76 1388 158 1  45  308  263 29% 35 289352 2505 41%
c i 29.82 1388 159 1  45  318  270 29% 38 289352 2503 41%
c i 29.84 1388 160 1  46  320  271 29% 38 289352 2502 41%
c i 30.00 1388 164 1  49  332  280 29% 41 289352 2501 41%
c i 30.09 1388 165 1  51  339  286 29% 42 289352 2500 41%
c i 30.15 1388 165 1  52  340  286 29% 42 289352 2499 41%
c i 30.27 1388 163 1  54  354  296 29% 42 289352 2498 41%
c i 30.28 1388 162 1  55  355  296 29% 42 289352 2497 41%
c i 30.59 1388 153 1  61  389  327 29% 41 289352 2496 41%
c i 30.61 1388 153 1  61  393  329 29% 41 289352 2494 40%
c i 30.67 1388 153 1  62  399  333 29% 42 289352 2493 40%
c 
c  seconds     reductions  redundant   irredundant
c          MB      restarts       trail       variables
c             level   conflicts       glue         remaining
c 
c i 31.03 1388 142 1  71  461  382 28% 41 289352 2492 40%
c i 31.05 1388 142 1  71  462  382 28% 41 289352 2491 40%
c i 31.14 1388 136 1  71  503  416 29% 42 289352 2490 40%
c i 31.15 1388 136 1  71  506  418 29% 42 289352 2489 40%
c i 31.15 1388 135 1  71  510  421 29% 42 289352 2488 40%
c i 31.18 1388 133 1  72  529  435 29% 42 289352 2481 40%
c i 31.21 1388 131 1  72  539  444 29% 42 289352 2480 40%
c i 31.50 1388 119 1  72  625  510 29% 41 289352 2478 40%
c i 31.71 1388 113 1  75  696  566 29% 41 289352 2477 40%
c i 31.73 1388 112 1  75  706  575 29% 41 289352 2476 40%
c i 31.83 1388 106 1  75  777  633 29% 40 289352 2475 40%
c i 31.85 1388 106 1  75  778  633 29% 40 289352 2474 40%
c i 31.91 1388 107 1  76  795  648 29% 42 289352 2473 40%
c i 32.07 1388 108 1  80  812  664 29% 42 289352 2468 40%
c i 32.25 1388 107 1  89  849  697 29% 43 289352 2467 40%
c i 32.25 1388 107 1  89  854  700 29% 42 289352 2466 40%
c i 32.30 1388 106 1  89  866  707 29% 42 289352 2353 38%
c i 32.59 1388 106 1  91  966  796 29% 42 289352 2351 38%
c } 32.63 1388 104 1  91 1000  823 29% 42 289352 2351 38%
c [ 32.63 1388  0 1  91 1000  823  0% 0 289352 2351 38%
c 
c  seconds    reductions  redundant   irredundant
c          MB     restarts       trail       variables
c            level   conflicts       glue         remaining
c 
c O 32.63 1388 40 1  91 1006  826 25% 33 289352 2351 38%
c i 33.04 1388 22 1  91 1105  913 30% 18 289352 2350 38%
c i 33.04 1388 21 1  91 1106  913 30% 17 289352 2349 38%
c i 33.05 1388 22 1  91 1123  929 31% 18 289352 2348 38%
c i 33.06 1388 21 1  91 1139  940 31% 18 289352 2347 38%
c - 33.75 1501 21 2  91 1179  832 31% 18 222607 2347 38%
c i 33.89 1501 21 2  91 1268  874 31% 18 222607 2346 38%
c i 33.96 1501 20 2  91 1440  942 31% 18 222607 2345 38%
c i 33.98 1501 20 2  91 1502  954 31% 17 222607 2344 38%
c i 33.98 1501 20 2  91 1503  954 31% 17 222607 2343 38%
c i 34.02 1501 20 2  91 1618 1012 31% 17 222607 2342 38%
c i 34.04 1501 20 2  91 1667 1028 31% 17 222607 2341 38%
c i 34.05 1501 20 2  91 1705 1053 31% 18 222607 2340 38%
c i 34.06 1501 21 2  91 1752 1078 31% 18 222607 2339 38%
c i 34.15 1501 24 2  92 2130 1292 31% 21 222607 2338 38%
c i 34.15 1501 24 2  92 2131 1292 31% 21 222607 2337 38%
c - 34.54 1499 24 3  92 2391  960 31% 21 222577 2337 38%
c i 34.91 1498 24 3  92 2569 1087 52% 21 222577 2336 38%
c i 34.94 1498 24 3  92 2607 1106 52% 21 222577 2335 38%
c i 34.94 1498 24 3  92 2609 1107 52% 21 222577 2334 38%
c 
c  seconds    reductions  redundant   irredundant
c          MB     restarts       trail       variables
c            level   conflicts       glue         remaining
c 
c i 34.95 1498 24 3  92 2647 1135 52% 21 222577 2333 38%
c i 35.08 1498 25 3  92 2941 1349 52% 22 222577 2332 38%
c ] 35.11 1498 26 3  92 3000 1389 51% 22 222577 2332 38%
c { 35.11 1498 104 3  92 3000 1389 75% 42 222577 2332 38%
c F 35.12 1498 103 3  92 3007 1396 75% 42 222577 2332 38%
c i 35.52 1498 99 3 100 3119 1494 72% 41 222577 2331 38%
c i 35.62 1498 100 3 101 3158 1530 72% 42 222577 2330 38%
c i 35.85 1498 101 3 108 3208 1574 70% 42 222577 2329 38%
c i 36.32 1498 98 3 132 3345 1688 68% 42 222577 2328 38%
c i 36.33 1498 98 3 132 3355 1697 68% 42 222577 2327 38%
c i 36.51 1498 97 3 145 3450 1779 66% 43 222577 2326 38%
c - 37.56 1496 86 4 168 4012 1734 62% 43 222544 2326 38%
c 2 38.35 1496 69 4 168 5000 3581 57% 38 222531 2320 38%
c p 44.57 1496 69 4 168 5000 7158 57% 38 222531 2236 36%
c d 45.01 1496 69 4 168 5000 6895 57% 38 222050 2232 36%
c # 46.03 1496 60 4 196 6008 7634 56% 34 222050 2232 36%
c - 46.31 1489 59 5 196 6035 2505 56% 34 222050 2232 36%
c } 46.59 1489 54 5 196 7001 3219 55% 33 222050 2232 36%
c [ 46.59 1489 26 5 196 7001 3219 51% 22 222050 2232 36%
c - 47.09 1390 28 6 197 8459 2856 51% 24 222050 2232 36%
c 
c  seconds    reductions   redundant   irredundant
c          MB     restarts        trail       variables
c            level    conflicts       glue         remaining
c 
c I 47.60 1390 28 6 198 10009 3854 52% 24 222050 2232 36%
c - 48.84 1392 44 7 200 11288 3336 50% 35 222050 2232 36%
c - 50.76 1392 61 8 201 14519 4175 49% 48 222050 2232 36%
c ] 51.03 1392 62 8 201 15001 4560 49% 49 222050 2232 36%
c { 51.03 1392 54 8 201 15001 4560 55% 33 222050 2232 36%
c 3 51.05 1392 54 8 201 15001 5573 55% 33 222050 2232 36%
c 2 51.09 1392 54 8 201 15001 5651 55% 33 222048 2232 36%
c p 52.79 1392 54 8 201 15001 8806 55% 33 222048 2232 36%
c B 53.04 1393 54 8 201 15010 8814 55% 33 222048 2232 36%
c } 53.81 1393 51 8 227 16379 9919 55% 32 222048 2232 36%
c 1 53.81 1393 51 8 227 16379 9919 55% 32 222048 2232 36%
c 
c --- [ writing output ] -----------------------------------------------------
c 
c writing simplified CNF to DIMACS file 'simp/33.cubes2096.adj.simp1'
c * 53.81 1393 51 8 227 16379 9919 55% 32 222048 2232 36%
c opening file to write 'simp/33.cubes2096.adj.simp1'
c writing 'p cnf 6160 222048' header
c closing file 'simp/33.cubes2096.adj.simp1'
c after writing 119689902 bytes 114.1 MB
c wrote 222048 clauses in 0.97 seconds process time
c 
c --- [ writing extension ] --------------------------------------------------
c 
c writing extension stack to 'simp/33.cubes2096.adj.ext1'
c opening file to write 'simp/33.cubes2096.adj.ext1'
c closing file 'simp/33.cubes2096.adj.ext1'
c after writing 11712 bytes 0.0 MB
c wrote 794 witnesses in 0.00 seconds process time
c 
c --- [ result ] -------------------------------------------------------------
c 
s SATISFIABLE
c 
c --- [ run-time profiling ] -------------------------------------------------
c 
c process time taken by individual solving procedures
c (percentage relative to process time for solving)
c 
c        25.78   74.42% search
c        19.16   55.30% parse
c        18.09   52.22% unstable
c         8.86   25.58% simplify
c         7.92   22.87% probe
c         6.92   19.97% stable
c         0.77    2.23% lucky
c         0.07    0.20% ternary
c   =================================
c        34.65   63.25% solve
c 
c last line shows process time for solving
c (percentage relative to total process time)
c 
c --- [ statistics ] ---------------------------------------------------------
c 
c chronological:              3111        18.99 %  of conflicts
c conflicts:                 16379       472.74    per second
c decisions:                 43237      1247.93    per second
c fixed:                       774        12.56 %  of all variables
c learned:                   16056        98.03 %  per conflict
c learned_lits:            3485684       100.00 %  learned literals
c minimized:                     0         0.00 %  learned literals
c shrunken:                2094030        60.08 %  learned literals
c minishrunken:             197837         5.68 %  learned literals
c propagations:            2262734         0.07 M  per second
c reduced:                    6584        40.20 %  per conflict
c rephased:                      5      3275.80    interval
c restarts:                    227        72.15    interval
c stabilizing:                   2        61.05 %  of conflicts
c substituted:                  10         0.16 %  of all variables
c subsumed:                   3769         0.11 %  of all clauses
c ternary:                    2209         0.52 %  of resolved
c weakened:                     20         2.00    average size
c 
c seconds are measured in process time for solving
c 
c --- [ resources ] ----------------------------------------------------------
c 
c total process time since initialization:        54.78    seconds
c total real time since initialization:           55.10    seconds
c maximum resident set size of process:         1610.88    MB
c 
c --- [ shutting down ] ------------------------------------------------------
c 
c exit 10
WARNING! DIMACS header mismatch: wrong number of variables.
============================[ Problem Statistics ]=============================
|                                                                             |
|  Number of variables:          6120                                         |
|  Number of clauses:          222050                                         |
|  Parse time:                   1.56 s                                       |
|  Simplification time:          0.03 s                                       |
|                                                                             |
============================[ Search Statistics ]====================================================
| Conflicts |          ORIGINAL         |          LEARNT          | Num Sols |      SUBGRAPHS      |
|           |    Vars  Clauses Literals |    Limit  Clauses Lit/Cl |          | Canonical Noncanon. |
=====================================================================================================
|       120 |    6030   222070 25435470 |     2000      120    109 |        0 |        36        20 |
|       270 |    6030   222070 25435470 |     2000      270    123 |        0 |        36        20 |
|       495 |    6030   222070 25435470 |     2000      495    120 |        0 |        38        20 |
|      1025 |    6030   222263 25439127 |     2000     1025    101 |        0 |        89       213 |
|      1975 |    6030   222707 25447933 |     2000     1975     89 |        0 |       193       657 |
|      2831 |    6030   222804 25450306 |     3606     1837     66 |        0 |       223       754 |
|      4007 |    6030   222841 25451126 |     3606     3013     85 |        0 |       249       791 |
|      5776 |    6030   222902 25453254 |     5004     2980     68 |        0 |       274       852 |
|      8377 |    6030   222941 25454073 |     6306     3083     55 |        0 |       279       891 |
|     12454 |    6030   223174 25459115 |     7557     4011     54 |        0 |       348      1124 |
|     18643 |    6030   223597 25465531 |     8782     6425     69 |        0 |       456      1547 |
|     27690 |    6030   223995 25472687 |    11202     6092     45 |        0 |       608      1945 |
|     41396 |    6030   224727 25489782 |    13603     7999     49 |        0 |       806      2677 |
|     62865 |    6030   226735 25525133 |    16005    15270     69 |        0 |      1212      4685 |
|     92572 |    6030   227250 25536826 |    19607    19179     72 |        0 |      1404      5200 |
|    136972 |    6030   227861 25550671 |    24414    20786     60 |        0 |      1535      5811 |
|    204095 |    6030   229300 25580082 |    30418    20913     50 |        0 |      1964      7250 |
|    304309 |    6030   230988 25615313 |    37609    20918     37 |        0 |      2555      8938 |
|    456076 |    6030   234966 25701570 |    46018    28494     49 |        1 |      3317     12915 |
|    684100 |    6030   241307 25838066 |    56828    27928     26 |        3 |      4620     19254 |
|   1027321 |    6030   252003 26057305 |    68825    60146     64 |        3 |      6161     29950 |
|   1536388 |    6030   262282 26308027 |    84421    75209     67 |        3 |      7993     40229 |
|   2341604 |    6030   319316 27465278 |   104815    81419     59 |       24 |     17764     97242 |
|   3475750 |    6030   331188 27731846 |   127614   117364     72 |       66 |     21280    109072 |
|   5166484 |    6030   338511 27901856 |   156429   111313     53 |       81 |     24786    116380 |
|   7704986 |    6030   351897 28239970 |   191220   138406     54 |       96 |     30062    129751 |
|  11496607 |    6030   355843 28365159 |   233216   227023     72 |      105 |     33616    133688 |
|  17192715 |    6030   370439 28757654 |   286021   225136     59 |      123 |     38876    148266 |
|  25753733 |    6030   409188 29680786 |   350827   205560     37 |      144 |     49877    186994 |
|  38558999 |    6030   431051 30289540 |   428825   361824     64 |      172 |     59249    208829 |
|  57776766 |    6030   473713 31463650 |   526028   269194     26 |      176 |     81679    251487 |
=====================================================================================================
Number of solutions   : 177
Canonical subgraphs   : 98895          (8 /sec)
          order  3    : 1              (200000 /sec)
          order  4    : 1              (500000 /sec)
          order  5    : 1              (200000 /sec)
          order  6    : 1              (55556 /sec)
          order  7    : 1              (8850 /sec)
          order  8    : 2              (1361 /sec)
          order  9    : 4              (240 /sec)
          order 10    : 9              (92 /sec)
          order 11    : 23             (57 /sec)
          order 12    : 112            (45 /sec)
          order 13    : 588            (28 /sec)
          order 14    : 3767           (21 /sec)
          order 15    : 23201          (13 /sec)
          order 16    : 41248          (9 /sec)
          order 17    : 24718          (7 /sec)
          order 18    : 2712           (6 /sec)
          order 19    : 933            (6 /sec)
          order 20    : 669            (6 /sec)
          order 21    : 727            (6 /sec)
          order 22    : 177            (1 /sec)
Noncanonical subgraphs: 288522         (306 /sec)
          order  3    : 0              (-nan /sec)
          order  4    : 0              (-nan /sec)
          order  5    : 0              (-nan /sec)
          order  6    : 0              (-nan /sec)
          order  7    : 0              (-nan /sec)
          order  8    : 0              (-nan /sec)
          order  9    : 0              (-nan /sec)
          order 10    : 0              (-nan /sec)
          order 11    : 0              (-nan /sec)
          order 12    : 0              (-nan /sec)
          order 13    : 2354           (9344 /sec)
          order 14    : 4769           (6464 /sec)
          order 15    : 133008         (737 /sec)
          order 16    : 95428          (438 /sec)
          order 17    : 41571          (200 /sec)
          order 18    : 10567          (50 /sec)
          order 19    : 194            (25 /sec)
          order 20    : 4              (1008 /sec)
          order 21    : 3              (601 /sec)
Canonicity checking   : 11663.4 s
Noncanonicity checking: 942.242 s
Total canonicity time : 12605.6 s
database reductions   : 508
restarts              : 100729
conflicts             : 78385730       (1460 /sec)
decisions             : 96399075       (0.00 % random) (1795 /sec)
propagations          : 8258539961     (153792 /sec)
conflict literals     : 8831992649     (59.02 % deleted)
actual reward         : 0.114409
Memory used           : 704.00 MB
CPU time              : 53699.4 s

UNSATISFIABLE
